52
30 21 104
21 22 175
22 19 94
19 49 35
49 15 130
15 45 156
45 43 131
43 33 80
33 34 21
34 35 15
35 48 81
48 31 50
31 44 151
44 18 75
18 40 92
40 7 64
7 8 183
8 9 83
9 32 501
32 42 365
42 14 242
14 37 61
37 39 35
39 38 43
38 36 56
36 47 60
47 23 16
23 4 32
4 5 35
5 3 70
3 24 109
24 11 245
11 50 188
50 10 285
10 51 399
51 13 319
13 12 206
12 26 185
26 27 110
27 25 159
25 46 186
46 28 523
28 29 260
29 52 480
52 1 187
1 6 45
6 41 76
41 20 290
20 16 253
16 2 217
2 17 135
17 30 80

